p cnf 7230 16
-662 -1972 -2214 0
-660 -1970 -2212 0
-658 -2004 -2210 0
-656 -2002 -2208 0
662 -2215 0
660 -2213 0
658 -2211 0
656 -2209 0
2214 2215 0
2212 2213 0
2210 2211 0
2208 2209 0
1972 -2215 0
1970 -2213 0
2004 -2211 0
2002 -2209 0
